instances/p2/p2_4_20-2.dzn
Alphabet = {A,C,G,T};
ns = 4;
nc = 12;
neighbours = [| I(A),I(A),I(C),I(T),I(G),I(G),I(C),Null,Null,Null,Null,Null | I(G),I(C),I(A),I(T),I(A),I(T),I(T),I(T),I(G),I(C),I(A),I(A) | I(C),Null,Null,Null,Null,Null,Null,Null,Null,Null,Null,Null | I(G),Null,Null,Null,Null,Null,Null,Null,Null,Null,Null,Null |];
