instances/p2/p2_4_20-2.txt
{
	"num_strings": 4,
	"alphabet": "ACGT",
	"strings": [
		"AACTGGC",
		"GCATATTTGCAA",
		"C",
		"G"
	],
	"str_length":[7,12,1,1]
}